WARNING: for repeatability, setting FPU to use double precision
============================[ Problem Statistics ]=============================
|                                                                             |
|  Number of variables:            50                                         |
|  Number of clauses:             218                                         |
|  Parse time:                   0.00 s                                       |
|                                                                             |
============================[ Search Statistics ]==============================
| Conflicts |          ORIGINAL         |          LEARNT          | Progress |
|           |    Vars  Clauses Literals |    Limit  Clauses Lit/Cl |          |
===============================================================================
|       100 |      46      216      648 |       79       44      4 |  8.000 % |
===============================================================================
restarts              : 2
conflicts             : 106            (65311 /sec)
decisions             : 127            (0.00 % random) (78250 /sec)
propagations          : 1439           (886630 /sec)
conflict literals     : 418            (14.17 % deleted)
Memory used           : 20.00 MB
CPU time              : 0.001623 s

UNSATISFIABLE
